c description: Random 3-CNF over 9 variables and 18 clauses
p cnf 9 18
6 -8 9 0
-1 4 -7 0
-6 -7 -8 0
-2 -3 -4 0
-2 5 8 0
2 4 -6 0
5 -6 -8 0
4 5 -6 0
1 5 8 0
-2 4 -6 0
2 5 -6 0
-4 -7 -9 0
-1 5 7 0
-3 -5 -7 0
-1 4 -9 0
-2 6 -9 0
-3 -5 7 0
2 -4 -8 0